33302
0 0 0 0 1 1 0 0 1 0 0 0 1 1 0 0 0 0 0 1 0 1 0 0 1 1 0 1 1 0
27 19 21 27 21 12 21 27 27 28 4 28 13 13 28 27 13 13 27 27 27 21 5 24 13 27 27 19 4 21 19 19 4 21 27 12 8 8 24 21 25 8 12 4 8 19 13 21 19 19 24 24 24 24 13 12 25 8 27 25 4 24 25 8 13 25 5 19 28 25 25 12 19 8 5 5 8 5 8 24 13 5 8 25 4 13 19 5 27 25 28 19 25 25 5 13 28 12 5 28 28 21 25 12 4 24 4 24 27 13 19 4 27 12 12 8 28 25 28 8 8 25 28 19 4 21 21 12 19 28 28 24 25 8 5 8 13 13 28 13 12 27 12 25 25 5 24 21 27 25 24 28 5 28 8 28 5 21 13 13 13 27 13 24 5 27 5 4 13 21 5 8 19 8 4 21 24 8 4 13 5 21 21 19 12 8 28 5 24 21 5 21 19 4 25 12 25 21 19 19
